letting n =  10
letting blocks =  [[1, 3], [1, 7], [1, 8], [1, 10], [2, 1], [2, 2], [2, 3], [3, 1], [3, 2], [3, 7], [3, 9], [4, 1], [4, 2], [4, 7], [4, 10], [5, 3], [5, 6], [5, 9], [6, 1], [6, 5], [6, 6], [6, 9], [6, 10], [7, 1], [7, 2], [7, 10], [8, 2], [8, 4], [8, 6], [8, 10], [9, 1], [9, 3], [9, 10], [10, 3], [10, 8], [10, 9]]
